Problem:    
Rows:       260
Columns:    89 (72 integer, 72 binary)
Non-zeros:  974
Status:     INTEGER OPTIMAL
Objective:  value = 56.839953 (MINimum)

   No.   Row name        Activity     Lower bound   Upper bound
------ ------------    ------------- ------------- -------------
     1 r.5                     56.84             0               
     2 r.6                    26.679       -983.94               
     3 r.7                   1056.84             0               
     4 r.8                   -976.83      -984.426               
     5 r.9                   1056.84             0               
     6 r.10                 -975.159      -983.939               
     7 r.11                    56.84             0               
     8 r.12                  24.8414      -985.883               
     9 r.13                  1056.84             0               
    10 r.14                 -994.828      -999.167               
    11 r.15                    56.84             0               
    12 r.16                  26.5126      -997.848               
    13 r.17                  1056.84             0               
    14 r.18                 -991.219      -998.228               
    15 r.19                    56.84             0               
    16 r.20                  24.8414      -997.047               
    17 r.21                    56.84             0               
    18 r.22                  47.7634       -992.27               
    19 r.23                  1056.84             0               
    20 r.24                 -952.237      -993.009               
    21 r.25                  1056.84             0               
    22 r.26                 -999.336      -999.336               
    23 r.27                    56.84             0               
    24 r.28                 -998.196      -998.196               
    25 r.29                  1056.84             0               
    26 r.30                  -943.16      -968.001               
    27 r.31                    56.84             0               
    28 r.32                    56.84      -942.366               
    29 r.33                    56.84             0               
    30 r.34                    56.84      -983.153               
    31 r.35                  1056.84             0               
    32 r.36                  -943.16      -990.923               
    33 r.37                        1             1             = 
    34 r.38                        1             1             = 
    35 r.39                        1             1             = 
    36 r.40                        1             1             = 
    37 r.41                        1             1             = 
    38 r.42                        1             1             = 
    39 r.43                        1             1             = 
    40 r.44                        1             1             = 
    41 r.45                     1001             2               
    42 r.46                    -1001         -1001               
    43 r.47                     2000      -983.939               
    44 r.48                     1001             2               
    45 r.49                    -1001         -1001               
    46 r.50                     2000      -985.883               
    47 r.51                     1001             2               
    48 r.52                    -1001         -1001               
    49 r.53                  1980.33      -999.167               
    50 r.54                     1001             2               
    51 r.55                    -1001         -1001               
    52 r.56                  2001.67      -997.848               
    53 r.57                     1001             2               
    54 r.58                    -1001         -1001               
    55 r.59                  1983.94      -998.228               
    56 r.60                     1001             2               
    57 r.61                    -1001         -1001               
    58 r.62                     2000      -997.047               
    59 r.63                     1000             2               
    60 r.64                    -1000         -1001               
    61 r.65                  2022.92       -992.27               
    62 r.66                        2             2               
    63 r.67                       -2         -1001               
    64 r.68                 -977.078      -993.009               
    65 r.69                  22.3398       -983.94               
    66 r.70                 -981.169      -984.426               
    67 r.71                  1028.22       -983.94               
    68 r.72                  24.7087      -984.426               
    69 r.73                 -968.001      -968.001               
    70 r.74                  31.9985      -942.366               
    71 r.75                 -968.001      -968.001               
    72 r.76                  31.9985      -942.366               
    73 r.77                  31.9985      -983.153               
    74 r.78                 -968.001      -990.923               
    75 r.79                  31.9985      -983.153               
    76 r.80                 -968.001      -990.923               
    77 r.81                     1001             2               
    78 r.82                    -1001         -1001               
    79 r.83                  2001.84       16.0596               
    80 r.84                     1001             2               
    81 r.85                    -1001         -1001               
    82 r.86                  1998.33       15.5739               
    83 r.87                        2             2               
    84 r.88                       -2         -1001               
    85 r.89                 -19.6697      -999.167               
    86 r.90                     1000             2               
    87 r.91                    -1000         -1001               
    88 r.92                  2001.67      -997.848               
    89 r.93                        2             2               
    90 r.94                       -2         -1001               
    91 r.95                 -16.0607      -998.228               
    92 r.96                     1000             2               
    93 r.97                    -1000         -1001               
    94 r.98                     2000      -997.047               
    95 r.99                     1001             2               
    96 r.100                   -1001         -1001               
    97 r.101                 2022.92       -992.27               
    98 r.102                    1001             2               
    99 r.103                   -1001         -1001               
   100 r.104                 2022.92      -993.009               
   101 r.105                -979.498      -983.939               
   102 r.106                 20.5023      -985.883               
   103 r.107                 26.3798      -983.939               
   104 r.108                 1026.38      -985.883               
   105 r.109                -968.001      -968.001               
   106 r.110                 31.9985      -942.366               
   107 r.111                -968.001      -968.001               
   108 r.112                 31.9985      -942.366               
   109 r.113                    1001             2               
   110 r.114                   -1001         -1001               
   111 r.115                    2032      -983.153               
   112 r.116                    1001             2               
   113 r.117                   -1001         -1001               
   114 r.118                    2032      -990.923               
   115 r.119                    1001             2               
   116 r.120                   -1001         -1001               
   117 r.121                 2019.67       16.0596               
   118 r.122                    1001             2               
   119 r.123                   -1001         -1001               
   120 r.124                 1998.33       15.5739               
   121 r.125                       2             2               
   122 r.126                      -2         -1001               
   123 r.127                 17.8322       16.0607               
   124 r.128                    1000             2               
   125 r.129                   -1000         -1001               
   126 r.130                    2000       14.1174               
   127 r.131                       2             2               
   128 r.132                      -2         -1001               
   129 r.133                -998.228      -998.228               
   130 r.134                    1000             2               
   131 r.135                   -1000         -1001               
   132 r.136                    2000      -997.047               
   133 r.137                    1001             2               
   134 r.138                   -1001         -1001               
   135 r.139                 2040.75       -992.27               
   136 r.140                    1001             2               
   137 r.141                   -1001         -1001               
   138 r.142                 2022.92      -993.009               
   139 r.143                -999.167      -999.167               
   140 r.144                 22.1734      -997.848               
   141 r.145                 6.71006      -999.167               
   142 r.146                 1028.05      -997.848               
   143 r.147                -950.169      -968.001               
   144 r.148                 49.8307      -942.366               
   145 r.149                -968.001      -968.001               
   146 r.150                 31.9985      -942.366               
   147 r.151                 49.8307      -983.153               
   148 r.152                -950.169      -990.923               
   149 r.153                 31.9985      -983.153               
   150 r.154                -968.001      -990.923               
   151 r.155                    1001             2               
   152 r.156                   -1001         -1001               
   153 r.157                  2017.9       16.0596               
   154 r.158                    1001             2               
   155 r.159                   -1001         -1001               
   156 r.160                 1998.33       15.5739               
   157 r.161                       2             2               
   158 r.162                      -2         -1001               
   159 r.163                 16.0607       16.0607               
   160 r.164                    1000             2               
   161 r.165                   -1000         -1001               
   162 r.166                    2000       14.1174               
   163 r.167                       2             2               
   164 r.168                      -2         -1001               
   165 r.169                 996.391      0.832539               
   166 r.170                    1000             2               
   167 r.171                   -1000         -1001               
   168 r.172                 2001.67       2.15169               
   169 r.173                    1001             2               
   170 r.174                   -1001         -1001               
   171 r.175                 2038.98       -992.27               
   172 r.176                    1001             2               
   173 r.177                   -1001         -1001               
   174 r.178                 2022.92      -993.009               
   175 r.179                -995.558      -998.228               
   176 r.180                 20.5023      -997.047               
   177 r.181                 10.3191      -998.228               
   178 r.182                 1026.38      -997.047               
   179 r.183                -951.941      -968.001               
   180 r.184                 48.0592      -942.366               
   181 r.185                -968.001      -968.001               
   182 r.186                 31.9985      -942.366               
   183 r.187                    1001             2               
   184 r.188                   -1001         -1001               
   185 r.189                 2048.06      -983.153               
   186 r.190                    1001             2               
   187 r.191                   -1001         -1001               
   188 r.192                    2032      -990.923               
   189 r.193                    1000             2               
   190 r.194                   -1000         -1001               
   191 r.195                 1978.92       16.0596               
   192 r.196                       2             2               
   193 r.197                      -2         -1001               
   194 r.198                 975.407       15.5739               
   195 r.199                    1001             2               
   196 r.200                   -1001         -1001               
   197 r.201                 1977.08       16.0607               
   198 r.202                    1001             2               
   199 r.203                   -1001         -1001               
   200 r.204                 1977.08       14.1174               
   201 r.205                    1001             2               
   202 r.206                   -1001         -1001               
   203 r.207                 1957.41      0.832539               
   204 r.208                    1001             2               
   205 r.209                   -1001         -1001               
   206 r.210                 1978.75       2.15169               
   207 r.211                    1001             2               
   208 r.212                   -1001         -1001               
   209 r.213                 1961.02       1.77154               
   210 r.214                    1001             2               
   211 r.215                   -1001         -1001               
   212 r.216                 1977.08       2.95282               
   213 r.217                 43.4243       -992.27               
   214 r.218                -956.576      -993.009               
   215 r.219                  1049.3       -992.27               
   216 r.220                 49.3018      -993.009               
   217 r.221                    1001             2               
   218 r.222                   -1001         -1001               
   219 r.223                 2009.08      -968.001               
   220 r.224                    1001             2               
   221 r.225                   -1001         -1001               
   222 r.226                 2009.08      -942.366               
   223 r.227                 9.07651      -983.153               
   224 r.228                -990.923      -990.923               
   225 r.229                 9.07651      -983.153               
   226 r.230                -990.923      -990.923               
   227 r.231                -947.499      -968.001               
   228 r.232                 52.5008      -942.366               
   229 r.233                 58.3783      -968.001               
   230 r.234                 1058.38      -942.366               
   231 r.235                    1001             2               
   232 r.236                   -1001         -1001               
   233 r.237                 1990.92       7.72961               
   234 r.238                    1001             2               
   235 r.239                   -1001         -1001               
   236 r.240                 1990.92       6.99104               
   237 r.241                    1001             2               
   238 r.242                   -1001         -1001               
   239 r.243                    2000      -983.153               
   240 r.244                    1001             2               
   241 r.245                   -1001         -1001               
   242 r.246                    2000      -990.923               
   243 r.247                    1001             2               
   244 r.248                   -1001         -1001               
   245 r.249                    1968       16.0607               
   246 r.250                    1001             2               
   247 r.251                   -1001         -1001               
   248 r.252                    1968       14.1174               
   249 r.253                    1001             2               
   250 r.254                   -1001         -1001               
   251 r.255                 1951.94       1.77154               
   252 r.256                    1001             2               
   253 r.257                   -1001         -1001               
   254 r.258                    1968       2.95282               
   255 r.259                    1001             2               
   256 r.260                   -1001         -1001               
   257 r.261                    2000       31.9985               
   258 r.262                    1001             2               
   259 r.263                   -1001         -1001               
   260 r.264                    2000       57.6343               

   No. Column name       Activity     Lower bound   Upper bound
------ ------------    ------------- ------------- -------------
     1 tt                      56.84             0               
     2 s_1_1        *              0             0             1 
     3 t_1_1                 31.9985             0               
     4 s_1_8        *              0             0             1 
     5 s_1_7        *              1             0             1 
     6 s_2_1        *              1             0             1 
     7 t_2_1                 31.9985             0               
     8 s_2_8        *              1             0             1 
     9 s_2_7        *              0             0             1 
    10 s_1_2        *              1             0             1 
    11 t_1_2                 31.9985             0               
    12 s_2_2        *              0             0             1 
    13 t_2_2                 31.9985             0               
    14 s_1_3        *              1             0             1 
    15 t_1_3                 49.8307             0               
    16 s_2_3        *              0             0             1 
    17 t_2_3                 31.9985             0               
    18 s_1_4        *              1             0             1 
    19 t_1_4                 48.0592             0               
    20 s_2_4        *              0             0             1 
    21 t_2_4                 31.9985             0               
    22 s_1_5        *              0             0             1 
    23 t_1_5                 9.07651             0               
    24 s_2_5        *              1             0             1 
    25 t_2_5                 9.07651             0               
    26 s_1_6        *              1             0             1 
    27 t_1_6                 52.5008             0               
    28 s_2_6        *              0             0             1 
    29 t_2_6                 1058.38             0               
    30 t_1_7                       0             0               
    31 t_2_7                       0             0               
    32 t_1_8                       0             0               
    33 t_2_8                       0             0               
    34 r_1_1_2      *              1             0             1 
    35 u_1_1_2      *              0             0             1 
    36 r_2_1_2      *              1             0             1 
    37 u_2_1_2      *              0             0             1 
    38 r_1_1_3      *              1             0             1 
    39 u_1_1_3      *              0             0             1 
    40 r_2_1_3      *              1             0             1 
    41 u_2_1_3      *              0             0             1 
    42 r_1_1_4      *              1             0             1 
    43 u_1_1_4      *              0             0             1 
    44 r_2_1_4      *              1             0             1 
    45 u_2_1_4      *              0             0             1 
    46 r_1_1_5      *              1             0             1 
    47 u_1_1_5      *              0             0             1 
    48 r_2_1_5      *              0             0             1 
    49 u_2_1_5      *              1             0             1 
    50 r_1_2_3      *              0             0             1 
    51 u_1_2_3      *              0             0             1 
    52 r_2_2_3      *              1             0             1 
    53 u_2_2_3      *              0             0             1 
    54 r_1_2_4      *              0             0             1 
    55 u_1_2_4      *              0             0             1 
    56 r_2_2_4      *              1             0             1 
    57 u_2_2_4      *              0             0             1 
    58 r_1_2_5      *              1             0             1 
    59 u_1_2_5      *              0             0             1 
    60 r_2_2_5      *              1             0             1 
    61 u_2_2_5      *              0             0             1 
    62 r_1_2_8      *              1             0             1 
    63 u_1_2_8      *              0             0             1 
    64 r_2_2_8      *              1             0             1 
    65 u_2_2_8      *              0             0             1 
    66 r_1_3_4      *              0             0             1 
    67 u_1_3_4      *              1             0             1 
    68 r_2_3_4      *              1             0             1 
    69 u_2_3_4      *              0             0             1 
    70 r_1_3_5      *              1             0             1 
    71 u_1_3_5      *              0             0             1 
    72 r_2_3_5      *              1             0             1 
    73 u_2_3_5      *              0             0             1 
    74 r_1_4_5      *              1             0             1 
    75 u_1_4_5      *              0             0             1 
    76 r_2_4_5      *              1             0             1 
    77 u_2_4_5      *              0             0             1 
    78 r_1_4_8      *              1             0             1 
    79 u_1_4_8      *              0             0             1 
    80 r_2_4_8      *              1             0             1 
    81 u_2_4_8      *              0             0             1 
    82 r_1_5_7      *              1             0             1 
    83 u_1_5_7      *              0             0             1 
    84 r_2_5_7      *              1             0             1 
    85 u_2_5_7      *              0             0             1 
    86 r_1_7_8      *              1             0             1 
    87 u_1_7_8      *              0             0             1 
    88 r_2_7_8      *              1             0             1 
    89 u_2_7_8      *              0             0             1 

Integer feasibility conditions:

KKT.PE: max.abs.err = 4.55e-13 on row 135
        max.rel.err = 1.11e-16 on row 135
        High quality

KKT.PB: max.abs.err = 1.14e-13 on row 105
        max.rel.err = 1.17e-16 on row 105
        High quality

End of output
